SCIP Status        : problem creation / modification
Total Time         :       0.01
  reading          :       0.01
Original Problem   :
  Problem name     : main4.zpl
  Variables        : 755 (755 binary, 0 integer, 0 implicit integer, 0 continuous)
  Constraints      : 0 initial, 905 maximal
  Objective        : minimize, 755 non-zeros (abs.min = 0.00051, abs.max = 5700)
